Route #1: 6 96 99 59 93 85 91 100 37 98 92 95 94
Route #2: 58 2 15 43 14 38 44 86 16 61 17 84 5 60
Route #3: 13 97 87 42 57 41 22 74 72 73 21 40 53
Route #4: 26 4 56 75 23 67 39 25 55 54 12
Route #5: 28 76 77 3 79 33 81 9 51 50 1
Route #6: 68 80 24 29 78 34 35 71 65 66 20 30 70 69 27
Route #7: 89 18 83 45 8 46 36 49 64 63 90 32 10 31
Route #8: 88 62 11 19 47 48 82 7 52
Cost 820
Time 0.157203
